7784
7723
7807
7798
7784
7843
7843
7720
7773
7772
7949
7719
7813
7868
7788
7804
7765
7749
7911
7796
7637
7730
7770
7621
7606
7757
7819
7853
7803
7722
7848
7840
7793
7777
7747
7838
7850
7882
7625
7756
7764
7915
7830
7789
7907
7706
7760
7753
7870
7683
7764
7749
7736
7754
7822
7762
7809
7807
7703
7798
7779
7827
7612
7805
7672
7804
7655
7758
7602
7814
7893
7793
7843
7812
7703
7844
7773
7880
7828
7800
7821
7727
7772
7857
7758
7805
7758
7746
7803
7757
7783
7626
7833
7833
7794
7830
7751
7712
7838
7841
